(set-logic QF_FPBV)
(set-info :source |Random FP created by PyMPF|)
(set-info :category random)
(set-info :status unsat)
;; fp.from.sbv(BitVec 32)
(declare-const x (_ BitVec 32))
(assert (= x #b01110111010001110110001000000010))
;; x should be 2001166850
(declare-const r Float64)
(assert (= r ((_ to_fp 11 53) RNA x)))
(assert (not (fp.eq r (fp #b0 #b10000011101 #b1101110100011101100010000000100000000000000000000000))))
(check-sat)
(exit)
